S = 5;
start = [|0,0,21,0,1,0,0,18,0,0,0,0,0,7,0,0,0,11,0,0,3,0,0,20,17|
11,17,20,9,0,0,0,0,0,0,0,0,0,0,25,4,21,0,0,1,0,0,0,0,0|
0,0,0,6,0,0,13,0,0,25,0,11,0,4,0,0,0,18,23,0,0,0,0,9,1|
0,0,0,4,0,0,0,11,24,0,14,0,0,21,0,0,0,0,0,0,0,0,0,0,16|
0,2,0,0,0,0,7,1,0,0,0,0,13,0,0,0,0,0,0,0,6,0,0,0,0|
4,8,0,0,0,0,0,5,13,0,0,17,22,0,0,0,0,6,0,0,0,0,25,0,19|
0,0,0,19,0,0,0,0,0,0,0,0,0,0,0,0,0,0,0,0,0,17,0,0,0|
0,0,0,0,6,0,0,0,7,0,0,0,0,0,0,0,22,5,0,25,0,0,0,0,0|
0,0,0,0,0,0,0,0,0,0,0,0,0,0,0,0,1,23,0,0,0,0,0,0,0|
0,0,0,0,0,1,8,6,0,0,0,23,0,0,5,19,20,0,0,0,24,0,0,0,15|
0,0,0,1,0,0,0,13,17,0,23,3,0,11,0,5,0,22,0,10,15,0,20,0,0|
0,0,0,0,0,14,0,0,0,0,4,0,0,0,10,0,0,15,0,0,22,0,0,3,0|
0,0,0,0,0,0,0,0,0,0,0,25,9,12,0,0,0,0,19,0,0,0,0,0,24|
9,24,0,0,22,0,0,0,12,0,0,7,0,0,14,1,0,4,0,3,0,21,0,18,23|
0,0,19,0,0,0,0,0,4,0,0,0,0,0,0,0,0,0,0,0,7,0,11,17,9|
0,0,0,0,25,0,15,7,0,0,0,4,0,0,16,0,0,0,0,0,0,24,0,0,0|
19,0,0,0,21,22,0,0,0,0,3,0,0,10,0,0,0,0,14,0,0,23,0,0,0|
0,11,10,0,24,17,0,0,0,9,0,0,8,0,19,0,0,1,0,20,0,4,12,0,0|
0,4,0,0,0,0,0,10,0,0,20,0,25,0,0,0,0,0,0,0,0,0,0,0,14|
0,0,0,0,20,0,25,19,0,0,11,0,0,14,0,22,10,0,24,4,1,0,0,0,0|
6,25,0,0,17,9,5,0,0,0,0,0,7,19,0,0,11,0,4,0,0,0,0,24,0|
0,23,0,24,0,0,0,0,0,3,0,0,0,0,17,2,0,0,0,12,0,25,0,0,0|
0,21,0,16,9,13,0,0,0,18,25,12,0,0,0,0,0,0,22,0,0,0,0,0,0|
0,0,4,0,0,0,0,25,8,0,0,0,0,0,0,0,15,10,0,0,9,3,0,0,0|
0,0,0,8,12,0,0,0,0,0,0,2,0,0,4,20,18,0,0,21,0,0,6,0,13|];